NAME
* Written by MOSEK version 6.0.0.137
OBJSENSE
    MIN
ROWS
 N  obj
 E  c1
 E  c2
 E  c3
 E  c4
 E  c5
 E  c6
 E  c7
 E  c8
 E  c9
 E  c10
 E  c11
 E  c12
 E  c13
 E  c14
 E  c15
 E  c16
 E  c17
 E  c18
 E  c19
 E  c20
 E  c21
 E  c22
 E  c23
 E  c24
 E  c25
 E  c26
 E  c27
 E  c28
 E  c29
 E  c30
 E  c31
 E  c32
COLUMNS
    x1        obj       74
    x1        c1        1
    x1        c2        4
    x1        c31       6
    x1        c32       4
    x2        obj       32
    x2        c2        4
    x2        c32       5
    x3        obj       52
    x3        c2        8
    x3        c32       8
    x4        obj       28
    x4        c2        6
    x4        c32       3
    x5        obj       86
    x5        c3        1
    x5        c4        9
    x5        c31       2
    x5        c32       8
    x6        obj       68
    x6        c4        4
    x6        c32       10
    x7        obj       36
    x7        c4        8
    x7        c32       3
    x8        obj       48
    x8        c4        1
    x8        c32       8
    x9        obj       78
    x9        c5        1
    x9        c6        5
    x9        c31       2
    x9        c32       7
    x10       obj       33
    x10       c6        4
    x10       c32       3
    x11       obj       44
    x11       c6        4
    x11       c32       5
    x12       obj       54
    x12       c6        5
    x12       c32       7
    x13       obj       83
    x13       c7        1
    x13       c8        5
    x13       c31       4
    x13       c32       6
    x14       obj       48
    x14       c8        6
    x14       c32       5
    x15       obj       63
    x15       c8        4
    x15       c32       9
    x16       obj       33
    x16       c8        6
    x16       c32       2
    x17       obj       1.21e+02
    x17       c9        1
    x17       c10       9
    x17       c31       5
    x17       c32       9
    x18       obj       69
    x18       c10       2
    x18       c32       11
    x19       obj       57
    x19       c10       9
    x19       c32       5
    x20       obj       53
    x20       c10       9
    x20       c32       4
    x21       obj       57
    x21       c11       1
    x21       c12       3
    x21       c31       2
    x21       c32       4
    x22       obj       53
    x22       c12       3
    x22       c32       8
    x23       obj       80
    x23       c12       8
    x23       c32       8
    x24       obj       50
    x24       c12       4
    x24       c32       6
    x25       obj       1.06e+02
    x25       c13       1
    x25       c14       8
    x25       c31       7
    x25       c32       8
    x26       obj       13
    x26       c14       2
    x26       c32       2
    x27       obj       43
    x27       c14       5
    x27       c32       6
    x28       obj       42
    x28       c14       16
    x28       c32       4
    x29       obj       59
    x29       c15       1
    x29       c16       5
    x29       c31       1
    x29       c32       4
    x30       obj       18
    x30       c16       3
    x30       c32       1
    x31       obj       62
    x31       c16       6
    x31       c32       8
    x32       obj       63
    x32       c16       5
    x32       c32       8
    x33       obj       52
    x33       c17       1
    x33       c18       5
    x33       c31       3
    x33       c32       1
    x34       obj       47
    x34       c18       9
    x34       c32       2
    x35       obj       59
    x35       c18       9
    x35       c32       4
    x36       obj       57
    x36       c18       6
    x36       c32       6
    x37       obj       1.14e+02
    x37       c19       1
    x37       c20       5
    x37       c31       7
    x37       c32       10
    x38       obj       17
    x38       c20       4
    x38       c32       2
    x39       obj       48
    x39       c20       8
    x39       c32       7
    x40       obj       21
    x40       c20       2
    x40       c32       2
    x41       obj       91
    x41       c21       1
    x41       c22       5
    x41       c31       3
    x41       c32       6
    x42       obj       55
    x42       c22       6
    x42       c32       4
    x43       obj       55
    x43       c22       5
    x43       c32       5
    x44       obj       36
    x44       c22       3
    x44       c32       3
    x45       obj       67
    x45       c23       1
    x45       c24       8
    x45       c32       4
    x46       obj       54
    x46       c24       5
    x46       c32       6
    x47       obj       29
    x47       c24       1
    x47       c32       4
    x48       obj       63
    x48       c24       4
    x48       c32       8
    x49       obj       59
    x49       c25       1
    x49       c26       4
    x49       c31       4
    x49       c32       2
    x50       obj       74
    x50       c26       9
    x50       c32       8
    x51       obj       59
    x51       c26       6
    x51       c32       7
    x52       obj       45
    x52       c26       5
    x52       c32       5
    x53       obj       1.13e+02
    x53       c27       1
    x53       c28       8
    x53       c31       8
    x53       c32       5
    x54       obj       42
    x54       c28       7
    x54       c32       3
    x55       obj       47
    x55       c28       1
    x55       c32       8
    x56       obj       39
    x56       c28       2
    x56       c32       5
    x57       obj       1.03e+02
    x57       c29       1
    x57       c30       5
    x57       c31       5
    x57       c32       4
    x58       obj       76
    x58       c30       4
    x58       c32       8
    x59       obj       64
    x59       c30       4
    x59       c32       6
    x60       obj       77
    x60       c30       5
    x60       c32       6
RHS
    rhs       c1        12
    rhs       c2        1.44e+02
    rhs       c3        8
    rhs       c4        1.27e+02
    rhs       c5        10
    rhs       c6        1.2e+02
    rhs       c7        9
    rhs       c8        1.19e+02
    rhs       c9        12
    rhs       c10       2.3e+02
    rhs       c11       14
    rhs       c12       1.58e+02
    rhs       c13       10
    rhs       c14       1.98e+02
    rhs       c15       9
    rhs       c16       98
    rhs       c17       8
    rhs       c18       1.36e+02
    rhs       c19       8
    rhs       c20       92
    rhs       c21       9
    rhs       c22       1.06e+02
    rhs       c23       10
    rhs       c24       1.37e+02
    rhs       c25       8
    rhs       c26       1.19e+02
    rhs       c27       9
    rhs       c28       1.31e+02
    rhs       c29       11
    rhs       c30       1.29e+02
    rhs       c31       5.77e+02
    rhs       c32       2.021e+03
RANGES
BOUNDS
 LI bound     x1        0
 LI bound     x2        0
 LI bound     x3        0
 LI bound     x4        0
 LI bound     x5        0
 LI bound     x6        0
 LI bound     x7        0
 LI bound     x8        0
 LI bound     x9        0
 LI bound     x10       0
 LI bound     x11       0
 LI bound     x12       0
 LI bound     x13       0
 LI bound     x14       0
 LI bound     x15       0
 LI bound     x16       0
 LI bound     x17       0
 LI bound     x18       0
 LI bound     x19       0
 LI bound     x20       0
 LI bound     x21       0
 LI bound     x22       0
 LI bound     x23       0
 LI bound     x24       0
 LI bound     x25       0
 LI bound     x26       0
 LI bound     x27       0
 LI bound     x28       0
 LI bound     x29       0
 LI bound     x30       0
 LI bound     x31       0
 LI bound     x32       0
 LI bound     x33       0
 LI bound     x34       0
 LI bound     x35       0
 LI bound     x36       0
 LI bound     x37       0
 LI bound     x38       0
 LI bound     x39       0
 LI bound     x40       0
 LI bound     x41       0
 LI bound     x42       0
 LI bound     x43       0
 LI bound     x44       0
 LI bound     x45       0
 LI bound     x46       0
 LI bound     x47       0
 LI bound     x48       0
 LI bound     x49       0
 LI bound     x50       0
 LI bound     x51       0
 LI bound     x52       0
 LI bound     x53       0
 LI bound     x54       0
 LI bound     x55       0
 LI bound     x56       0
 LI bound     x57       0
 LI bound     x58       0
 LI bound     x59       0
 LI bound     x60       0
CSECTION      k1        0              QUAD
    x1
    x2
    x3
    x4
CSECTION      k2        0              QUAD
    x5
    x6
    x7
    x8
CSECTION      k3        0              QUAD
    x9
    x10
    x11
    x12
CSECTION      k4        0              QUAD
    x13
    x14
    x15
    x16
CSECTION      k5        0              QUAD
    x17
    x18
    x19
    x20
CSECTION      k6        0              QUAD
    x21
    x22
    x23
    x24
CSECTION      k7        0              QUAD
    x25
    x26
    x27
    x28
CSECTION      k8        0              QUAD
    x29
    x30
    x31
    x32
CSECTION      k9        0              QUAD
    x33
    x34
    x35
    x36
CSECTION      k10       0              QUAD
    x37
    x38
    x39
    x40
CSECTION      k11       0              QUAD
    x41
    x42
    x43
    x44
CSECTION      k12       0              QUAD
    x45
    x46
    x47
    x48
CSECTION      k13       0              QUAD
    x49
    x50
    x51
    x52
CSECTION      k14       0              QUAD
    x53
    x54
    x55
    x56
CSECTION      k15       0              QUAD
    x57
    x58
    x59
    x60
ENDATA
